p wcnf 200 234 235 
1 -17 2 0 
1 -12 -78 0 
1 -142 39 0 
1 -38 184 0 
1 -97 56 0 
1 -157 -121 0 
1 -182 125 0 
1 132 -113 0 
1 -62 -198 0 
1 -53 182 0 
1 -97 -48 0 
1 33 119 0 
1 196 81 0 
1 45 65 0 
1 -14 162 0 
1 107 119 0 
1 -30 -4 0 
1 -88 103 0 
1 10 118 0 
1 169 35 0 
1 -4 9 0 
1 -114 29 0 
1 50 -101 0 
1 -106 24 0 
1 -156 182 0 
1 -110 -46 0 
1 -129 -3 0 
1 22 78 0 
1 -119 -128 0 
1 51 26 0 
1 165 -181 0 
1 -95 134 0 
1 50 78 0 
1 -85 56 0 
1 76 -164 0 
1 173 122 0 
1 -168 40 0 
1 22 -100 0 
1 186 120 0 
1 55 92 0 
1 -194 71 0 
1 -58 25 0 
1 188 -76 0 
1 111 102 0 
1 -140 -66 0 
1 -96 157 0 
1 -160 181 0 
1 50 -171 0 
1 121 -110 0 
1 -47 -6 0 
1 -72 4 0 
1 -37 75 0 
1 -150 -144 0 
1 120 -112 0 
1 -173 -97 0 
1 -142 -144 0 
1 -184 -175 0 
1 -26 80 0 
1 -110 -155 0 
1 66 91 0 
1 110 -156 0 
1 -161 145 0 
1 -43 75 0 
1 125 187 0 
1 -83 99 0 
1 179 -149 0 
1 -55 -91 0 
1 -191 -171 0 
1 50 -11 0 
1 30 68 0 
1 -64 39 0 
1 14 -108 0 
1 -64 -117 0 
1 -21 188 0 
1 157 199 0 
1 -165 88 0 
1 -145 155 0 
1 -72 -103 0 
1 -25 118 0 
1 -33 63 0 
1 -40 -137 0 
1 138 128 0 
1 28 -4 0 
1 59 -4 0 
1 132 -169 0 
1 57 164 0 
1 -78 68 0 
1 91 -182 0 
1 -52 154 0 
1 -31 -133 0 
1 -141 -2 0 
1 148 -116 0 
1 67 -187 0 
1 -13 -77 0 
1 56 -158 0 
1 -184 137 0 
1 -17 -94 0 
1 -136 87 0 
1 40 150 0 
1 66 112 0 
1 14 69 0 
1 55 29 0 
1 -160 94 0 
1 42 142 0 
1 35 -96 0 
1 -185 151 0 
1 176 -82 0 
1 -179 68 0 
1 -69 -124 0 
1 -9 84 0 
1 90 14 0 
1 29 176 0 
1 95 7 0 
1 62 -151 0 
1 107 1 0 
1 100 187 0 
1 -79 -17 0 
1 65 -113 0 
1 -55 198 0 
1 -191 65 0 
1 -136 86 0 
1 39 102 0 
1 -22 -150 0 
1 166 -14 0 
1 -174 -166 0 
1 -166 -36 0 
1 75 -40 0 
1 109 118 0 
1 -45 131 0 
1 -67 179 0 
1 55 -148 0 
1 -60 -88 0 
1 8 33 0 
1 -119 -160 0 
1 108 -1 0 
1 22 -134 0 
1 142 151 0 
1 45 -183 0 
1 -124 -59 0 
1 74 168 0 
1 -194 107 0 
1 27 -49 0 
1 196 -13 0 
1 -21 -124 0 
1 120 -152 0 
1 43 -129 0 
1 17 133 0 
1 -131 122 0 
1 66 -99 0 
1 -195 113 0 
1 130 64 0 
1 49 -134 0 
1 -10 -175 0 
1 185 -71 0 
1 2 108 0 
1 175 32 0 
1 60 -105 0 
1 32 59 0 
1 174 -200 0 
1 -188 -105 0 
1 102 111 0 
1 131 108 0 
1 63 15 0 
1 -127 -196 0 
1 66 -10 0 
1 -123 -178 0 
1 65 43 0 
1 123 -11 0 
1 -48 -98 0 
1 -100 -189 0 
1 150 2 0 
1 -127 -137 0 
1 -188 28 0 
1 -77 -82 0 
1 147 135 0 
1 41 23 0 
1 16 99 0 
1 176 -89 0 
1 38 7 0 
1 21 -198 0 
1 -22 -9 0 
1 -171 -143 0 
1 -94 124 0 
1 -127 56 0 
1 21 61 0 
1 -19 141 0 
1 112 70 0 
1 7 -79 0 
1 -114 85 0 
1 -51 -92 0 
1 -3 -137 0 
1 -2 58 0 
1 81 -138 0 
1 54 172 0 
1 94 159 0 
1 53 190 0 
1 -147 127 0 
1 -9 -194 0 
1 -126 53 0 
1 -166 -196 0 
1 198 106 0 
1 -67 -132 0 
1 -124 156 0 
1 -19 -148 0 
1 13 -139 0 
1 -36 130 0 
1 -165 37 0 
1 85 61 0 
1 -128 -150 0 
1 136 90 0 
1 190 -97 0 
1 56 -36 0 
1 -42 -191 0 
1 -158 -85 0 
1 -106 115 0 
1 -115 -113 0 
1 -194 170 0 
1 -91 173 0 
1 155 -79 0 
1 -183 -114 0 
1 -105 -17 0 
1 153 -111 0 
1 -6 141 0 
1 -89 -122 0 
1 102 -118 0 
1 -104 -3 0 
1 -181 -113 0 
1 65 16 0 
1 120 -26 0 
1 78 -144 0 
1 -175 176 0 
1 -43 44 0 
1 -92 91 0 
1 -164 65 0 
